# Problem from http://www.cs.cornell.edu/gomes/QUASIdemo.html
# (n = 10)
# Pattern #4.
# There are no solutions to this problem.

param n := 10;
param m: 1 2 3 4 5 6 7 8 9 10 :=
   1   . . . . . . . . . 1 
   2   . . . . . . . . 1 . 
   3   . . . . . . . 1 . . 
   4   . . . . . . 2 . . . 
   5   . . . . . 1 . . . . 
   6   . . . . 1 . . . . . 
   7   . . . 1 . . . . . . 
   8   . . 1 . . . . . . . 
   9   . 1 . . . . . . . . 
  10   1 . . . . . . . . . 
;
